num_vertices=25;
num_edges=160;
node_edges=[{1,3,6,10,12,16,37,51,73,100,118,160},
{1,2,5,9,11,15,21,43,59,81,110,127},
{2,3,4,8,14,20,27,36,50,67,90,137},
{4,5,6,7,19,26,33,42,58,72,99,148},
{7,8,9,10,25,32,49,66,80,109,117,159},
{11,12,13,18,24,31,35,41,71,89,116,147},
{13,14,15,16,17,23,30,34,40,48,79,98,126,158},
{17,18,19,20,21,22,29,39,47,57,70,88,108,136},
{22,23,24,25,26,27,28,46,56,65,78,97,115,146},
{28,29,30,31,32,33,55,64,87,107,125,157},
{34,35,36,37,38,45,54,63,69,77,114,135},
{38,39,40,41,42,43,44,53,62,68,76,86,124,145},
{44,45,46,47,48,49,50,51,52,61,75,85,96,113,134,156},
{52,53,54,55,56,57,58,59,60,84,95,106,123,144},
{60,61,62,63,64,65,66,67,94,105,133,155},
{68,69,70,71,72,73,74,83,93,104,112,122},
{74,75,76,77,78,79,80,81,82,92,103,111,121,132},
{82,83,84,85,86,87,88,89,90,91,102,120,131,143},
{91,92,93,94,95,96,97,98,99,100,101,130,142,154},
{101,102,103,104,105,106,107,108,109,110,141,153},
{111,112,113,114,115,116,117,118,119,129,140,152},
{119,120,121,122,123,124,125,126,127,128,139,151},
{128,129,130,131,132,133,134,135,136,137,138,150},
{138,139,140,141,142,143,144,145,146,147,148,149},
{149,150,151,152,153,154,155,156,157,158,159,160}];
